DIMACS_lns/graph-1000-375.col
p edge 1000 1853
e 2 932
e 2 264
e 2 927
e 3 162
e 3 425
e 3 236
e 3 879
e 3 508
e 4 689
e 4 501
e 4 971
e 5 696
e 5 435
e 5 851
e 5 691
e 5 365
e 6 844
e 6 995
e 6 741
e 6 414
e 6 206
e 6 960
e 6 946
e 6 39
e 7 561
e 7 779
e 7 827
e 7 326
e 8 471
e 8 906
e 8 751
e 8 842
e 9 790
e 9 868
e 9 266
e 9 758
e 9 128
e 10 773
e 10 282
e 10 643
e 11 582
e 11 393
e 11 175
e 12 223
e 12 607
e 12 803
e 12 634
e 13 225
e 13 937
e 13 602
e 13 804
e 13 238
e 13 755
e 13 836
e 13 605
e 13 482
e 14 523
e 14 551
e 14 339
e 14 813
e 15 529
e 15 939
e 15 165
e 15 548
e 15 714
e 15 715
e 16 619
e 16 224
e 16 592
e 16 897
e 16 981
e 16 382
e 17 255
e 17 351
e 17 601
e 18 987
e 18 454
e 18 627
e 18 300
e 18 190
e 18 574
e 18 880
e 19 370
e 19 836
e 19 45
e 19 102
e 19 722
e 20 471
e 20 185
e 20 110
e 20 356
e 21 924
e 21 34
e 21 781
e 21 758
e 22 389
e 22 188
e 22 456
e 23 208
e 23 975
e 23 839
e 23 874
e 24 670
e 24 945
e 24 472
e 24 556
e 24 696
e 25 829
e 25 702
e 25 770
e 25 696
e 25 113
e 25 463
e 25 953
e 27 85
e 27 607
e 27 814
e 29 464
e 29 112
e 29 417
e 29 334
e 30 941
e 30 111
e 30 679
e 32 79
e 32 52
e 32 454
e 32 48
e 34 698
e 34 498
e 34 777
e 34 822
e 34 199
e 35 865
e 35 157
e 35 246
e 36 53
e 36 905
e 36 672
e 36 362
e 37 555
e 37 676
e 37 432
e 37 487
e 37 485
e 37 929
e 37 106
e 37 852
e 39 294
e 39 123
e 39 361
e 40 191
e 40 215
e 40 310
e 40 769
e 41 548
e 41 223
e 41 505
e 41 839
e 42 583
e 42 342
e 42 968
e 43 553
e 43 794
e 43 188
e 44 378
e 44 510
e 44 150
e 44 832
e 45 605
e 45 711
e 45 195
e 46 918
e 46 602
e 46 983
e 48 908
e 48 325
e 48 829
e 48 786
e 48 660
e 49 989
e 49 96
e 49 56
e 49 318
e 49 342
e 49 246
e 49 769
e 50 409
e 50 772
e 50 516
e 50 862
e 50 882
e 50 471
e 51 882
e 51 99
e 51 853
e 51 743
e 51 585
e 52 401
e 52 603
e 52 417
e 52 899
e 53 503
e 53 239
e 53 192
e 55 633
e 55 415
e 55 842
e 55 536
e 56 150
e 56 960
e 56 198
e 56 110
e 56 364
e 56 72
e 57 964
e 57 787
e 57 535
e 57 955
e 58 317
e 58 385
e 58 626
e 58 712
e 58 310
e 58 97
e 59 297
e 59 914
e 59 751
e 59 629
e 59 704
e 62 101
e 62 171
e 62 498
e 62 754
e 62 244
e 64 902
e 64 991
e 64 697
e 65 131
e 65 997
e 65 126
e 65 72
e 66 483
e 66 123
e 66 521
e 66 71
e 67 943
e 67 237
e 67 589
e 67 801
e 69 407
e 69 192
e 69 638
e 69 801
e 69 281
e 71 82
e 71 256
e 71 359
e 72 751
e 72 117
e 72 328
e 73 318
e 73 343
e 73 950
e 73 158
e 73 332
e 74 660
e 74 281
e 74 141
e 75 840
e 75 938
e 75 798
e 75 415
e 75 829
e 76 918
e 76 332
e 76 179
e 77 625
e 77 345
e 77 834
e 77 122
e 77 829
e 77 371
e 78 981
e 78 961
e 78 666
e 78 999
e 78 556
e 78 738
e 79 421
e 79 873
e 79 325
e 79 309
e 79 650
e 79 985
e 79 717
e 80 753
e 80 624
e 80 746
e 80 653
e 82 697
e 82 448
e 82 625
e 82 545
e 82 177
e 82 494
e 82 927
e 82 626
e 85 722
e 85 573
e 85 307
e 85 410
e 86 408
e 86 734
e 86 269
e 89 650
e 89 932
e 89 874
e 89 917
e 91 210
e 91 712
e 91 255
e 91 874
e 91 523
e 91 246
e 92 724
e 92 688
e 92 750
e 92 107
e 93 866
e 93 991
e 93 773
e 93 798
e 93 495
e 93 432
e 93 726
e 94 299
e 94 559
e 94 691
e 95 622
e 95 635
e 95 362
e 95 634
e 96 517
e 96 714
e 97 949
e 97 729
e 97 794
e 97 100
e 99 659
e 99 401
e 99 978
e 99 722
e 100 751
e 100 737
e 101 985
e 101 704
e 101 473
e 101 914
e 102 391
e 102 251
e 102 218
e 103 275
e 103 148
e 103 541
e 106 989
e 106 956
e 106 186
e 106 607
e 106 518
e 106 307
e 107 863
e 107 288
e 107 373
e 107 766
e 107 330
e 110 198
e 110 391
e 110 456
e 110 945
e 110 907
e 110 386
e 110 535
e 110 750
e 110 409
e 111 396
e 111 220
e 111 440
e 111 879
e 112 978
e 112 531
e 112 613
e 112 163
e 112 687
e 113 541
e 113 184
e 113 435
e 113 601
e 114 583
e 114 970
e 114 981
e 114 128
e 115 910
e 115 869
e 115 802
e 115 676
e 115 922
e 115 382
e 115 854
e 115 844
e 115 665
e 115 959
e 116 809
e 116 492
e 116 409
e 117 536
e 117 396
e 117 874
e 117 919
e 117 887
e 117 813
e 118 901
e 118 711
e 118 924
e 118 776
e 118 781
e 118 222
e 118 610
e 119 224
e 119 148
e 119 124
e 119 688
e 121 664
e 121 734
e 121 747
e 122 586
e 122 408
e 122 251
e 122 299
e 122 495
e 123 637
e 123 529
e 123 981
e 124 780
e 124 753
e 124 636
e 126 697
e 126 722
e 126 364
e 126 293
e 128 950
e 128 996
e 128 647
e 128 219
e 130 424
e 130 589
e 130 907
e 131 704
e 131 500
e 131 931
e 131 956
e 131 671
e 133 933
e 133 421
e 133 531
e 133 487
e 133 489
e 133 499
e 134 473
e 134 644
e 134 505
e 134 636
e 134 733
e 135 320
e 135 818
e 135 171
e 136 689
e 136 495
e 136 577
e 136 399
e 136 378
e 136 627
e 136 250
e 138 347
e 138 432
e 138 637
e 138 895
e 139 863
e 139 238
e 139 779
e 139 627
e 139 850
e 140 190
e 140 236
e 140 840
e 141 771
e 141 233
e 141 200
e 144 576
e 144 168
e 144 227
e 144 599
e 144 387
e 144 713
e 145 324
e 145 994
e 145 449
e 145 998
e 148 642
e 148 542
e 148 870
e 149 230
e 149 981
e 149 237
e 149 499
e 149 215
e 150 960
e 150 948
e 150 892
e 150 331
e 150 814
e 151 941
e 151 179
e 151 172
e 151 579
e 152 448
e 152 805
e 152 287
e 152 637
e 152 517
e 152 905
e 152 978
e 154 979
e 154 466
e 154 222
e 155 562
e 155 328
e 155 964
e 155 852
e 156 817
e 156 262
e 156 746
e 157 657
e 157 935
e 158 663
e 158 448
e 158 797
e 158 666
e 158 633
e 158 709
e 158 917
e 158 703
e 159 774
e 159 666
e 159 689
e 160 233
e 160 685
e 160 659
e 160 385
e 160 410
e 161 679
e 161 230
e 161 757
e 162 649
e 162 611
e 162 317
e 163 761
e 163 610
e 165 179
e 165 686
e 165 643
e 165 742
e 165 268
e 165 412
e 166 722
e 166 820
e 166 602
e 166 935
e 166 589
e 166 821
e 168 840
e 168 692
e 168 615
e 168 627
e 168 501
e 168 724
e 168 494
e 168 234
e 170 872
e 170 641
e 170 306
e 170 772
e 170 233
e 170 364
e 171 829
e 171 347
e 171 279
e 171 188
e 171 572
e 172 798
e 172 389
e 172 183
e 172 384
e 174 532
e 174 253
e 174 516
e 175 753
e 175 220
e 176 913
e 176 876
e 176 436
e 176 923
e 177 605
e 177 822
e 177 850
e 178 497
e 178 946
e 178 919
e 178 385
e 178 713
e 179 641
e 179 855
e 179 854
e 181 455
e 181 193
e 181 688
e 183 343
e 183 378
e 183 300
e 183 480
e 184 872
e 184 244
e 184 642
e 184 460
e 184 191
e 185 774
e 185 643
e 185 309
e 185 576
e 186 655
e 186 206
e 186 660
e 186 561
e 188 579
e 188 709
e 188 536
e 188 589
e 189 324
e 189 923
e 189 682
e 189 702
e 189 804
e 190 920
e 190 910
e 190 893
e 190 416
e 190 546
e 191 739
e 191 947
e 191 880
e 192 573
e 192 485
e 192 947
e 193 333
e 193 935
e 193 702
e 193 545
e 193 290
e 195 384
e 195 494
e 195 573
e 198 460
e 199 981
e 199 347
e 199 296
e 199 626
e 199 552
e 200 974
e 200 885
e 200 769
e 205 561
e 205 396
e 205 854
e 206 296
e 206 499
e 206 405
e 206 526
e 207 343
e 207 749
e 207 480
e 208 680
e 208 227
e 209 372
e 209 485
e 209 682
e 209 500
e 209 349
e 210 543
e 210 667
e 210 582
e 210 421
e 213 872
e 213 875
e 213 710
e 213 552
e 213 224
e 213 837
e 214 758
e 214 312
e 214 921
e 214 397
e 215 384
e 215 324
e 215 994
e 216 227
e 216 611
e 216 595
e 216 351
e 218 468
e 218 479
e 218 902
e 218 386
e 218 498
e 219 814
e 219 788
e 219 955
e 220 723
e 220 888
e 220 625
e 221 374
e 221 483
e 221 277
e 222 238
e 223 279
e 223 687
e 223 618
e 223 446
e 223 295
e 224 348
e 224 808
e 224 973
e 224 717
e 225 579
e 225 762
e 225 921
e 225 733
e 225 882
e 226 248
e 226 435
e 226 564
e 226 716
e 227 971
e 227 939
e 229 927
e 229 617
e 229 651
e 229 610
e 230 967
e 230 828
e 230 437
e 231 948
e 231 361
e 231 371
e 231 414
e 231 983
e 231 603
e 233 874
e 233 655
e 234 326
e 234 356
e 234 266
e 236 940
e 236 866
e 236 263
e 236 408
e 236 414
e 237 437
e 237 949
e 238 803
e 238 924
e 238 595
e 239 384
e 239 878
e 239 910
e 239 511
e 244 841
e 244 788
e 246 676
e 246 318
e 247 641
e 247 286
e 247 293
e 247 843
e 248 818
e 248 957
e 248 972
e 248 751
e 250 464
e 250 665
e 250 362
e 250 263
e 250 396
e 251 342
e 251 797
e 252 611
e 252 287
e 252 258
e 252 752
e 252 775
e 252 847
e 252 872
e 252 941
e 252 834
e 253 386
e 253 487
e 253 744
e 253 971
e 253 574
e 255 625
e 255 818
e 255 501
e 256 382
e 256 355
e 256 411
e 256 760
e 257 363
e 257 575
e 257 405
e 257 713
e 258 808
e 258 605
e 259 715
e 259 789
e 259 952
e 262 997
e 262 497
e 262 913
e 263 877
e 263 621
e 263 730
e 264 620
e 264 319
e 264 806
e 264 940
e 266 884
e 268 980
e 268 590
e 268 585
e 269 415
e 269 613
e 269 899
e 269 309
e 272 689
e 272 887
e 272 738
e 275 464
e 275 362
e 276 365
e 276 938
e 276 627
e 276 489
e 277 404
e 277 905
e 279 430
e 279 969
e 279 863
e 280 932
e 280 808
e 280 907
e 280 986
e 281 804
e 282 286
e 282 949
e 282 920
e 282 783
e 284 846
e 284 797
e 284 685
e 284 734
e 284 692
e 286 770
e 286 287
e 286 397
e 286 994
e 287 518
e 288 416
e 288 840
e 289 463
e 289 379
e 289 760
e 290 917
e 290 362
e 290 884
e 291 682
e 291 869
e 291 754
e 291 457
e 291 440
e 291 925
e 293 821
e 294 747
e 294 758
e 294 398
e 294 467
e 295 563
e 295 931
e 295 663
e 296 360
e 296 697
e 296 998
e 296 464
e 296 657
e 297 886
e 297 346
e 297 742
e 297 395
e 299 499
e 300 618
e 300 546
e 300 844
e 300 533
e 303 582
e 303 324
e 303 569
e 303 446
e 303 734
e 304 371
e 304 332
e 304 618
e 304 592
e 304 460
e 306 634
e 306 927
e 306 473
e 307 326
e 309 895
e 309 390
e 309 970
e 309 795
e 310 983
e 310 908
e 311 480
e 311 503
e 311 422
e 312 584
e 312 718
e 312 435
e 312 645
e 313 575
e 313 433
e 313 368
e 313 485
e 314 390
e 314 833
e 314 799
e 314 533
e 317 501
e 317 431
e 317 327
e 318 610
e 318 747
e 318 839
e 318 666
e 318 572
e 318 471
e 319 385
e 319 426
e 319 467
e 319 816
e 320 740
e 320 894
e 320 739
e 321 618
e 321 802
e 321 970
e 322 597
e 322 562
e 322 798
e 323 997
e 323 837
e 323 728
e 323 751
e 323 386
e 323 489
e 325 979
e 325 677
e 325 850
e 325 908
e 325 816
e 325 685
e 325 862
e 326 418
e 326 368
e 326 741
e 327 853
e 327 449
e 327 686
e 327 722
e 328 834
e 328 617
e 328 373
e 328 405
e 329 664
e 329 391
e 329 829
e 330 945
e 330 454
e 331 610
e 331 499
e 331 465
e 332 580
e 332 559
e 332 408
e 332 505
e 333 472
e 333 630
e 333 395
e 333 561
e 333 528
e 334 569
e 334 504
e 336 604
e 336 600
e 336 425
e 336 558
e 336 986
e 336 780
e 338 880
e 338 952
e 338 690
e 339 410
e 339 996
e 342 619
e 342 784
e 343 889
e 343 347
e 343 961
e 345 466
e 345 451
e 345 688
e 346 939
e 346 945
e 347 955
e 347 355
e 348 863
e 348 410
e 349 817
e 349 774
e 351 801
e 352 479
e 352 629
e 352 603
e 355 846
e 356 454
e 356 742
e 358 404
e 358 892
e 358 562
e 359 650
e 359 982
e 360 600
e 360 692
e 360 543
e 360 712
e 361 890
e 362 631
e 362 746
e 362 682
e 363 744
e 363 795
e 363 444
e 364 711
e 365 938
e 365 694
e 365 738
e 368 440
e 368 853
e 369 895
e 369 558
e 369 988
e 370 451
e 370 761
e 370 531
e 370 940
e 370 435
e 371 442
e 371 464
e 371 876
e 372 983
e 372 860
e 373 609
e 373 672
e 374 805
e 374 410
e 374 812
e 375 444
e 375 990
e 375 513
e 375 521
e 377 698
e 377 519
e 377 641
e 378 399
e 378 492
e 378 436
e 379 398
e 379 921
e 379 710
e 380 770
e 380 741
e 380 975
e 380 496
e 380 472
e 382 585
e 382 762
e 383 412
e 383 489
e 383 495
e 383 551
e 384 797
e 384 756
e 385 534
e 386 713
e 387 421
e 387 947
e 387 569
e 388 750
e 388 510
e 388 837
e 389 721
e 389 716
e 390 564
e 390 712
e 391 840
e 391 964
e 391 861
e 392 446
e 392 533
e 392 655
e 393 943
e 393 714
e 393 973
e 395 840
e 395 716
e 395 836
e 395 907
e 395 695
e 396 698
e 396 535
e 397 677
e 397 948
e 397 938
e 397 447
e 398 435
e 398 457
e 398 532
e 398 627
e 398 822
e 399 798
e 399 417
e 399 818
e 400 789
e 400 806
e 400 581
e 401 582
e 404 504
e 404 405
e 404 506
e 404 719
e 404 674
e 404 552
e 404 431
e 407 414
e 407 890
e 408 553
e 408 636
e 408 921
e 408 882
e 409 498
e 409 429
e 410 610
e 411 680
e 411 730
e 411 711
e 412 429
e 412 816
e 413 726
e 413 704
e 413 724
e 414 538
e 414 728
e 415 745
e 415 505
e 416 499
e 417 639
e 418 745
e 418 762
e 419 483
e 419 953
e 419 674
e 419 695
e 422 534
e 422 563
e 422 466
e 424 815
e 424 463
e 424 879
e 424 431
e 424 439
e 424 647
e 424 905
e 424 666
e 425 427
e 425 667
e 426 672
e 426 674
e 426 975
e 427 960
e 427 868
e 427 698
e 429 451
e 429 692
e 429 908
e 429 905
e 429 492
e 429 877
e 429 447
e 430 899
e 430 615
e 431 529
e 432 831
e 433 526
e 433 590
e 433 519
e 435 767
e 435 831
e 436 631
e 436 825
e 437 931
e 437 999
e 437 615
e 437 473
e 437 577
e 439 839
e 439 604
e 442 884
e 442 617
e 442 635
e 442 620
e 444 551
e 444 996
e 444 945
e 444 781
e 446 624
e 446 861
e 446 483
e 446 983
e 447 618
e 447 997
e 448 991
e 448 546
e 448 577
e 448 451
e 448 965
e 449 714
e 449 794
e 451 719
e 451 541
e 451 640
e 452 763
e 452 508
e 452 709
e 453 975
e 453 756
e 453 467
e 454 790
e 454 766
e 454 526
e 455 927
e 455 848
e 455 624
e 456 743
e 456 907
e 457 953
e 457 688
e 459 601
e 459 972
e 459 971
e 459 880
e 459 946
e 460 799
e 460 862
e 460 892
e 462 842
e 462 979
e 462 581
e 462 696
e 462 570
e 462 633
e 463 749
e 463 630
e 463 703
e 464 789
e 464 498
e 465 691
e 465 599
e 465 863
e 466 795
e 467 692
e 467 900
e 468 674
e 468 684
e 468 860
e 469 987
e 469 581
e 469 804
e 469 726
e 469 559
e 471 752
e 471 762
e 472 671
e 472 877
e 472 892
e 473 579
e 479 573
e 479 815
e 479 620
e 480 887
e 480 868
e 480 995
e 480 933
e 482 726
e 482 559
e 483 622
e 484 734
e 484 777
e 484 754
e 487 513
e 487 788
e 487 757
e 487 755
e 487 612
e 488 645
e 488 516
e 488 627
e 488 876
e 489 869
e 492 798
e 492 627
e 492 922
e 492 617
e 495 510
e 495 651
e 495 803
e 495 713
e 495 834
e 496 621
e 496 518
e 496 751
e 497 913
e 498 813
e 498 564
e 498 940
e 498 543
e 499 621
e 499 683
e 500 963
e 501 990
e 501 677
e 501 847
e 501 754
e 503 584
e 503 597
e 504 865
e 504 873
e 505 743
e 505 667
e 506 565
e 506 846
e 506 1000
e 507 543
e 507 529
e 507 878
e 508 946
e 508 616
e 508 736
e 510 994
e 511 600
e 511 786
e 511 684
e 513 758
e 513 884
e 513 743
e 513 740
e 513 616
e 516 640
e 517 670
e 517 922
e 517 761
e 518 616
e 518 736
e 519 907
e 521 770
e 521 746
e 521 535
e 523 683
e 526 822
e 526 637
e 526 889
e 528 1000
e 528 866
e 528 629
e 528 911
e 530 723
e 530 876
e 530 711
e 531 833
e 532 968
e 532 689
e 533 888
e 534 832
e 534 943
e 534 938
e 535 995
e 536 659
e 538 921
e 538 633
e 538 934
e 538 679
e 538 786
e 538 995
e 541 902
e 542 657
e 542 612
e 543 684
e 543 937
e 544 768
e 544 940
e 544 754
e 545 843
e 546 722
e 546 721
e 547 635
e 547 940
e 547 821
e 548 690
e 548 659
e 548 834
e 548 804
e 548 711
e 551 671
e 552 997
e 553 620
e 553 938
e 553 820
e 555 842
e 555 730
e 556 595
e 556 797
e 558 641
e 558 586
e 558 762
e 558 855
e 562 956
e 563 774
e 563 908
e 563 933
e 563 890
e 564 619
e 564 927
e 565 774
e 565 914
e 568 861
e 568 702
e 568 665
e 570 918
e 570 834
e 570 761
e 572 650
e 572 901
e 573 747
e 573 920
e 573 619
e 573 865
e 573 734
e 573 814
e 574 663
e 574 579
e 575 689
e 575 630
e 576 839
e 576 884
e 577 910
e 577 918
e 577 780
e 577 914
e 577 834
e 579 967
e 580 829
e 580 825
e 580 963
e 581 736
e 581 766
e 581 781
e 582 847
e 582 670
e 583 697
e 583 722
e 584 666
e 585 829
e 585 729
e 586 934
e 586 726
e 587 779
e 587 776
e 587 969
e 587 757
e 589 999
e 589 612
e 590 968
e 590 812
e 590 639
e 592 854
e 597 887
e 599 887
e 599 625
e 600 827
e 601 695
e 601 747
e 601 666
e 602 803
e 602 606
e 603 876
e 604 728
e 604 818
e 605 899
e 606 648
e 606 633
e 607 712
e 607 967
e 609 957
e 609 718
e 609 961
e 609 870
e 609 865
e 610 960
e 611 752
e 613 783
e 613 784
e 615 877
e 616 760
e 616 837
e 616 953
e 617 906
e 619 679
e 619 965
e 620 722
e 622 884
e 622 849
e 622 865
e 622 763
e 622 950
e 624 763
e 625 775
e 626 649
e 626 807
e 626 986
e 626 773
e 629 897
e 629 714
e 630 703
e 631 724
e 631 846
e 633 975
e 633 947
e 634 728
e 634 788
e 634 919
e 634 712
e 634 789
e 635 851
e 635 797
e 636 947
e 636 723
e 636 713
e 637 709
e 637 874
e 637 893
e 637 866
e 638 733
e 638 889
e 639 789
e 639 694
e 640 922
e 640 799
e 641 963
e 641 907
e 642 803
e 644 757
e 644 689
e 644 809
e 645 990
e 645 771
e 647 771
e 647 795
e 648 715
e 648 680
e 648 690
e 649 784
e 651 848
e 653 846
e 653 827
e 653 722
e 655 889
e 657 713
e 659 885
e 660 692
e 660 799
e 664 763
e 664 855
e 667 882
e 670 969
e 671 790
e 671 828
e 671 801
e 671 875
e 671 682
e 672 817
e 676 680
e 677 899
e 679 770
e 679 892
e 679 847
e 680 820
e 682 931
e 682 813
e 683 902
e 683 818
e 683 711
e 684 921
e 684 694
e 686 729
e 687 771
e 688 884
e 688 929
e 689 895
e 689 833
e 690 734
e 690 982
e 690 697
e 692 776
e 692 872
e 692 828
e 694 829
e 695 751
e 695 813
e 696 865
e 696 851
e 696 755
e 697 836
e 697 990
e 698 929
e 698 831
e 698 937
e 698 900
e 702 779
e 703 768
e 703 769
e 704 738
e 710 837
e 712 846
e 713 863
e 713 910
e 713 793
e 714 950
e 714 886
e 714 961
e 714 946
e 716 756
e 717 963
e 717 888
e 718 846
e 718 769
e 718 940
e 719 943
e 719 866
e 721 948
e 722 971
e 724 924
e 726 783
e 726 801
e 729 970
e 729 806
e 733 837
e 733 875
e 733 925
e 733 758
e 734 774
e 736 785
e 736 901
e 737 814
e 737 750
e 739 801
e 739 914
e 740 786
e 742 879
e 742 881
e 744 964
e 745 950
e 747 933
e 749 822
e 749 777
e 750 818
e 751 948
e 751 763
e 751 900
e 752 981
e 752 933
e 752 812
e 754 950
e 754 919
e 756 998
e 756 968
e 758 779
e 761 888
e 762 832
e 762 847
e 762 983
e 762 780
e 762 968
e 766 990
e 767 996
e 767 935
e 768 771
e 769 925
e 770 777
e 771 888
e 772 793
e 773 825
e 773 834
e 775 876
e 775 885
e 775 776
e 775 902
e 776 881
e 779 923
e 780 957
e 780 988
e 781 787
e 783 980
e 784 949
e 784 934
e 784 807
e 785 937
e 785 890
e 787 949
e 788 948
e 789 841
e 790 939
e 790 921
e 793 949
e 795 952
e 798 980
e 802 995
e 805 979
e 806 885
e 807 913
e 807 876
e 807 822
e 807 843
e 808 934
e 808 839
e 809 953
e 812 927
e 812 914
e 812 967
e 812 887
e 815 924
e 816 832
e 817 842
e 820 895
e 820 982
e 822 963
e 825 973
e 828 940
e 828 905
e 828 994
e 829 1000
e 832 987
e 833 847
e 833 890
e 834 952
e 834 975
e 836 978
e 836 959
e 836 935
e 840 999
e 840 961
e 841 972
e 842 907
e 842 878
e 842 932
e 844 925
e 848 994
e 849 902
e 849 945
e 850 973
e 851 985
e 851 913
e 852 955
e 860 974
e 862 872
e 866 869
e 868 873
e 869 988
e 870 940
e 870 882
e 874 911
e 875 940
e 877 927
e 878 979
e 880 982
e 881 887
e 881 998
e 881 995
e 886 989
e 887 949
e 888 889
e 890 905
e 893 906
e 893 964
e 894 927
e 894 961
e 894 933
e 895 996
e 897 932
e 906 980
e 906 949
e 908 947
e 911 999
e 913 932
e 914 927
e 917 955
e 923 956
e 952 968
e 957 988
e 959 974
e 964 982
e 965 983
e 968 989
e 968 985
e 974 995
e 978 981
